50 8
638 769
352 162
189 937
661 268
670 883
520 558
747 563
839 490
266 754
464 177
879 695
758 454
588 608
540 362
826 126
483 449
733 383
748 621
594 708
877 124
747 696
812 530
432 436
756 890
563 287
305 757
367 544
781 795
577 431
356 823
785 762
673 648
751 588
887 688
223 357
877 340
461 439
644 215
868 105
827 791
831 403
787 402
455 629
688 331
381 448
223 331
464 351
923 235
863 677
720 624
